24-1-密码设计与分析-向泽军/AES-最少活跃S盒/aes.lp
Minimize
a_0_0_0 + a_0_0_1 + a_0_0_2 + a_0_0_3 + a_0_1_0 + a_0_1_1 + a_0_1_2 + a_0_1_3 + a_0_2_0 + a_0_2_1 + a_0_2_2 + a_0_2_3 + a_0_3_0 + a_0_3_1 + a_0_3_2 + a_0_3_3 + a_1_0_0 + a_1_0_1 + a_1_0_2 + a_1_0_3 + a_1_1_0 + a_1_1_1 + a_1_1_2 + a_1_1_3 + a_1_2_0 + a_1_2_1 + a_1_2_2 + a_1_2_3 + a_1_3_0 + a_1_3_1 + a_1_3_2 + a_1_3_3 + a_2_0_0 + a_2_0_1 + a_2_0_2 + a_2_0_3 + a_2_1_0 + a_2_1_1 + a_2_1_2 + a_2_1_3 + a_2_2_0 + a_2_2_1 + a_2_2_2 + a_2_2_3 + a_2_3_0 + a_2_3_1 + a_2_3_2 + a_2_3_3 + a_3_0_0 + a_3_0_1 + a_3_0_2 + a_3_0_3 + a_3_1_0 + a_3_1_1 + a_3_1_2 + a_3_1_3 + a_3_2_0 + a_3_2_1 + a_3_2_2 + a_3_2_3 + a_3_3_0 + a_3_3_1 + a_3_3_2 + a_3_3_3
Subject To
a_0_0_0 + a_0_0_1 + a_0_0_2 + a_0_0_3 + a_0_1_0 + a_0_1_1 + a_0_1_2 + a_0_1_3 + a_0_2_0 + a_0_2_1 + a_0_2_2 + a_0_2_3 + a_0_3_0 + a_0_3_1 + a_0_3_2 + a_0_3_3 >= 1
a_0_0_0 + a_0_1_1 + a_0_2_2 + a_0_3_3 + a_1_0_0 + a_1_1_0 + a_1_2_0 + a_1_3_0 - 5 d_0_0 >= 0
d_0_0 - a_0_0_0 >= 0
d_0_0 - a_0_1_1 >= 0
d_0_0 - a_0_2_2 >= 0
d_0_0 - a_0_3_3 >= 0
d_0_0 - a_1_0_0 >= 0
d_0_0 - a_1_1_0 >= 0
d_0_0 - a_1_2_0 >= 0
d_0_0 - a_1_3_0 >= 0
a_0_0_1 + a_0_1_2 + a_0_2_3 + a_0_3_0 + a_1_0_1 + a_1_1_1 + a_1_2_1 + a_1_3_1 - 5 d_0_1 >= 0
d_0_1 - a_0_0_1 >= 0
d_0_1 - a_0_1_2 >= 0
d_0_1 - a_0_2_3 >= 0
d_0_1 - a_0_3_0 >= 0
d_0_1 - a_1_0_1 >= 0
d_0_1 - a_1_1_1 >= 0
d_0_1 - a_1_2_1 >= 0
d_0_1 - a_1_3_1 >= 0
a_0_0_2 + a_0_1_3 + a_0_2_0 + a_0_3_1 + a_1_0_2 + a_1_1_2 + a_1_2_2 + a_1_3_2 - 5 d_0_2 >= 0
d_0_2 - a_0_0_2 >= 0
d_0_2 - a_0_1_3 >= 0
d_0_2 - a_0_2_0 >= 0
d_0_2 - a_0_3_1 >= 0
d_0_2 - a_1_0_2 >= 0
d_0_2 - a_1_1_2 >= 0
d_0_2 - a_1_2_2 >= 0
d_0_2 - a_1_3_2 >= 0
a_0_0_3 + a_0_1_0 + a_0_2_1 + a_0_3_2 + a_1_0_3 + a_1_1_3 + a_1_2_3 + a_1_3_3 - 5 d_0_3 >= 0
d_0_3 - a_0_0_3 >= 0
d_0_3 - a_0_1_0 >= 0
d_0_3 - a_0_2_1 >= 0
d_0_3 - a_0_3_2 >= 0
d_0_3 - a_1_0_3 >= 0
d_0_3 - a_1_1_3 >= 0
d_0_3 - a_1_2_3 >= 0
d_0_3 - a_1_3_3 >= 0
a_1_0_0 + a_1_1_1 + a_1_2_2 + a_1_3_3 + a_2_0_0 + a_2_1_0 + a_2_2_0 + a_2_3_0 - 5 d_1_0 >= 0
d_1_0 - a_1_0_0 >= 0
d_1_0 - a_1_1_1 >= 0
d_1_0 - a_1_2_2 >= 0
d_1_0 - a_1_3_3 >= 0
d_1_0 - a_2_0_0 >= 0
d_1_0 - a_2_1_0 >= 0
d_1_0 - a_2_2_0 >= 0
d_1_0 - a_2_3_0 >= 0
a_1_0_1 + a_1_1_2 + a_1_2_3 + a_1_3_0 + a_2_0_1 + a_2_1_1 + a_2_2_1 + a_2_3_1 - 5 d_1_1 >= 0
d_1_1 - a_1_0_1 >= 0
d_1_1 - a_1_1_2 >= 0
d_1_1 - a_1_2_3 >= 0
d_1_1 - a_1_3_0 >= 0
d_1_1 - a_2_0_1 >= 0
d_1_1 - a_2_1_1 >= 0
d_1_1 - a_2_2_1 >= 0
d_1_1 - a_2_3_1 >= 0
a_1_0_2 + a_1_1_3 + a_1_2_0 + a_1_3_1 + a_2_0_2 + a_2_1_2 + a_2_2_2 + a_2_3_2 - 5 d_1_2 >= 0
d_1_2 - a_1_0_2 >= 0
d_1_2 - a_1_1_3 >= 0
d_1_2 - a_1_2_0 >= 0
d_1_2 - a_1_3_1 >= 0
d_1_2 - a_2_0_2 >= 0
d_1_2 - a_2_1_2 >= 0
d_1_2 - a_2_2_2 >= 0
d_1_2 - a_2_3_2 >= 0
a_1_0_3 + a_1_1_0 + a_1_2_1 + a_1_3_2 + a_2_0_3 + a_2_1_3 + a_2_2_3 + a_2_3_3 - 5 d_1_3 >= 0
d_1_3 - a_1_0_3 >= 0
d_1_3 - a_1_1_0 >= 0
d_1_3 - a_1_2_1 >= 0
d_1_3 - a_1_3_2 >= 0
d_1_3 - a_2_0_3 >= 0
d_1_3 - a_2_1_3 >= 0
d_1_3 - a_2_2_3 >= 0
d_1_3 - a_2_3_3 >= 0
a_2_0_0 + a_2_1_1 + a_2_2_2 + a_2_3_3 + a_3_0_0 + a_3_1_0 + a_3_2_0 + a_3_3_0 - 5 d_2_0 >= 0
d_2_0 - a_2_0_0 >= 0
d_2_0 - a_2_1_1 >= 0
d_2_0 - a_2_2_2 >= 0
d_2_0 - a_2_3_3 >= 0
d_2_0 - a_3_0_0 >= 0
d_2_0 - a_3_1_0 >= 0
d_2_0 - a_3_2_0 >= 0
d_2_0 - a_3_3_0 >= 0
a_2_0_1 + a_2_1_2 + a_2_2_3 + a_2_3_0 + a_3_0_1 + a_3_1_1 + a_3_2_1 + a_3_3_1 - 5 d_2_1 >= 0
d_2_1 - a_2_0_1 >= 0
d_2_1 - a_2_1_2 >= 0
d_2_1 - a_2_2_3 >= 0
d_2_1 - a_2_3_0 >= 0
d_2_1 - a_3_0_1 >= 0
d_2_1 - a_3_1_1 >= 0
d_2_1 - a_3_2_1 >= 0
d_2_1 - a_3_3_1 >= 0
a_2_0_2 + a_2_1_3 + a_2_2_0 + a_2_3_1 + a_3_0_2 + a_3_1_2 + a_3_2_2 + a_3_3_2 - 5 d_2_2 >= 0
d_2_2 - a_2_0_2 >= 0
d_2_2 - a_2_1_3 >= 0
d_2_2 - a_2_2_0 >= 0
d_2_2 - a_2_3_1 >= 0
d_2_2 - a_3_0_2 >= 0
d_2_2 - a_3_1_2 >= 0
d_2_2 - a_3_2_2 >= 0
d_2_2 - a_3_3_2 >= 0
a_2_0_3 + a_2_1_0 + a_2_2_1 + a_2_3_2 + a_3_0_3 + a_3_1_3 + a_3_2_3 + a_3_3_3 - 5 d_2_3 >= 0
d_2_3 - a_2_0_3 >= 0
d_2_3 - a_2_1_0 >= 0
d_2_3 - a_2_2_1 >= 0
d_2_3 - a_2_3_2 >= 0
d_2_3 - a_3_0_3 >= 0
d_2_3 - a_3_1_3 >= 0
d_2_3 - a_3_2_3 >= 0
d_2_3 - a_3_3_3 >= 0
a_3_0_0 + a_3_1_1 + a_3_2_2 + a_3_3_3 + a_4_0_0 + a_4_1_0 + a_4_2_0 + a_4_3_0 - 5 d_3_0 >= 0
d_3_0 - a_3_0_0 >= 0
d_3_0 - a_3_1_1 >= 0
d_3_0 - a_3_2_2 >= 0
d_3_0 - a_3_3_3 >= 0
d_3_0 - a_4_0_0 >= 0
d_3_0 - a_4_1_0 >= 0
d_3_0 - a_4_2_0 >= 0
d_3_0 - a_4_3_0 >= 0
a_3_0_1 + a_3_1_2 + a_3_2_3 + a_3_3_0 + a_4_0_1 + a_4_1_1 + a_4_2_1 + a_4_3_1 - 5 d_3_1 >= 0
d_3_1 - a_3_0_1 >= 0
d_3_1 - a_3_1_2 >= 0
d_3_1 - a_3_2_3 >= 0
d_3_1 - a_3_3_0 >= 0
d_3_1 - a_4_0_1 >= 0
d_3_1 - a_4_1_1 >= 0
d_3_1 - a_4_2_1 >= 0
d_3_1 - a_4_3_1 >= 0
a_3_0_2 + a_3_1_3 + a_3_2_0 + a_3_3_1 + a_4_0_2 + a_4_1_2 + a_4_2_2 + a_4_3_2 - 5 d_3_2 >= 0
d_3_2 - a_3_0_2 >= 0
d_3_2 - a_3_1_3 >= 0
d_3_2 - a_3_2_0 >= 0
d_3_2 - a_3_3_1 >= 0
d_3_2 - a_4_0_2 >= 0
d_3_2 - a_4_1_2 >= 0
d_3_2 - a_4_2_2 >= 0
d_3_2 - a_4_3_2 >= 0
a_3_0_3 + a_3_1_0 + a_3_2_1 + a_3_3_2 + a_4_0_3 + a_4_1_3 + a_4_2_3 + a_4_3_3 - 5 d_3_3 >= 0
d_3_3 - a_3_0_3 >= 0
d_3_3 - a_3_1_0 >= 0
d_3_3 - a_3_2_1 >= 0
d_3_3 - a_3_3_2 >= 0
d_3_3 - a_4_0_3 >= 0
d_3_3 - a_4_1_3 >= 0
d_3_3 - a_4_2_3 >= 0
d_3_3 - a_4_3_3 >= 0
Binary
a_0_0_0
a_0_0_1
a_0_0_2
a_0_0_3
a_0_1_0
a_0_1_1
a_0_1_2
a_0_1_3
a_0_2_0
a_0_2_1
a_0_2_2
a_0_2_3
a_0_3_0
a_0_3_1
a_0_3_2
a_0_3_3
a_1_0_0
a_1_0_1
a_1_0_2
a_1_0_3
a_1_1_0
a_1_1_1
a_1_1_2
a_1_1_3
a_1_2_0
a_1_2_1
a_1_2_2
a_1_2_3
a_1_3_0
a_1_3_1
a_1_3_2
a_1_3_3
a_2_0_0
a_2_0_1
a_2_0_2
a_2_0_3
a_2_1_0
a_2_1_1
a_2_1_2
a_2_1_3
a_2_2_0
a_2_2_1
a_2_2_2
a_2_2_3
a_2_3_0
a_2_3_1
a_2_3_2
a_2_3_3
a_3_0_0
a_3_0_1
a_3_0_2
a_3_0_3
a_3_1_0
a_3_1_1
a_3_1_2
a_3_1_3
a_3_2_0
a_3_2_1
a_3_2_2
a_3_2_3
a_3_3_0
a_3_3_1
a_3_3_2
a_3_3_3
a_4_0_0
a_4_0_1
a_4_0_2
a_4_0_3
a_4_1_0
a_4_1_1
a_4_1_2
a_4_1_3
a_4_2_0
a_4_2_1
a_4_2_2
a_4_2_3
a_4_3_0
a_4_3_1
a_4_3_2
a_4_3_3
d_0_0
d_0_1
d_0_2
d_0_3
d_1_0
d_1_1
d_1_2
d_1_3
d_2_0
d_2_1
d_2_2
d_2_3
d_3_0
d_3_1
d_3_2
d_3_3
END